108066
108066
107747
104929
104929
104929
104474
101847
101847
101847
100460
100460
98992
98992
98908.2
95029.5
95029.5
95029.5
95029.5
95029.5
95029.5
92482.3
92482.3
92482.3
92482.3
92482.3
92482.3
92482.3
92482.3
92482.3
91658.7
91658.7
91658.7
91457.7
90264.1
90264.1
90264.1
90264.1
90196.6
89804.3
86617.9
86617.9
86617.9
85666.4
85666.4
85666.4
85666.4
85596.9
85596.9
84337.4
84337.4
84294.9
84294.9
84294.9
84294.9
84294.9
82560.5
81127.1
81127.1
81127.1
81097.6
79309.6
79309.6
79309.6
79309.6
79309.6
79309.6
79309.6
78897.1
78897.1
78897.1
78897.1
78897.1
78897.1
77112.8
77112.8
77000
77000
77000
77000
77000
76531.2
76531.2
76531.2
76210
76210
76159.7
75032.1
75032.1
75032.1
75032.1
74717.1
74717.1
74717.1
74717.1
74717.1
74717.1
74066.2
74003.3
74003.3
